NAME : swiss42-R-5-2-a.1596.tour
COMMENT : Length = 1596
COMMENT : Found by LKH-3 [Keld Helsgaun] Tue Jul 30 13:14:22 2024
TYPE : TOUR
DIMENSION : 42
TOUR_SECTION
1
4
5
3
28
31
30
40
11
13
19
27
20
15
17
16
38
8
18
32
37
36
21
34
35
33
29
39
23
25
41
22
10
9
24
42
26
12
14
6
7
2
-1
EOF
